Version identifier: 20.1.0.0 | 2020-11-10 | 9bedb6d68
CPXPARAM_Threads                                 1
CPXPARAM_TimeLimit                               7200
CPXPARAM_MIP_Tolerances_MIPGap                   0
Generic callback                                 0x60
1 of 1 MIP starts provided solutions.
MIP start 'm1' defined initial solution with objective 1396.1063.
Tried aggregator 1 time.
Reduced MIP has 1 rows, 501 columns, and 500 nonzeros.
Reduced MIP has 500 binaries, 0 generals, 0 SOSs, and 0 indicators.
Presolve time = 0.00 sec. (0.15 ticks)
Probing time = 0.00 sec. (0.05 ticks)
Tried aggregator 1 time.
Reduced MIP has 1 rows, 501 columns, and 500 nonzeros.
Reduced MIP has 500 binaries, 0 generals, 0 SOSs, and 0 indicators.
Presolve time = 0.00 sec. (0.15 ticks)
Probing time = 0.00 sec. (0.05 ticks)
MIP emphasis: balance optimality and feasibility.
MIP search method: dynamic search.
Parallel mode: none, using 1 thread.
Root relaxation solution time = 0.00 sec. (0.10 ticks)

        Nodes                                         Cuts/
   Node  Left     Objective  IInf  Best Integer    Best Bound    ItCnt     Gap

*     0+    0                         1396.1063     5432.0000           289.08%
      0     0     1803.7292     2     1396.1063     5432.0000        0  289.08%
      0     0     1727.6031     4     1396.1063 UserPurge2: 1       12   23.74%
      0     0     1550.9836     4     1396.1063 UserPurge2: 1       28   11.09%
      0     0     1505.0817     4     1396.1063 UserPurge2: 1       39    7.81%

Repeating presolve.
Tried aggregator 1 time.
MIP Presolve eliminated 0 rows and 134 columns.
Reduced MIP has 1 rows, 367 columns, and 366 nonzeros.
Reduced MIP has 366 binaries, 0 generals, 0 SOSs, and 0 indicators.
Presolve time = 0.00 sec. (0.14 ticks)
Probing time = 0.00 sec. (0.04 ticks)
Tried aggregator 1 time.
Reduced MIP has 1 rows, 367 columns, and 366 nonzeros.
Reduced MIP has 366 binaries, 0 generals, 0 SOSs, and 0 indicators.
Presolve time = 0.00 sec. (0.11 ticks)
Represolve time = 0.00 sec. (0.83 ticks)
Probing time = 0.00 sec. (0.04 ticks)
MIP emphasis: balance optimality and feasibility.
MIP search method: dynamic search.
Parallel mode: none, using 1 thread.
Root relaxation solution time = 0.00 sec. (0.69 ticks)

        Nodes                                         Cuts/
   Node  Left     Objective  IInf  Best Integer    Best Bound    ItCnt     Gap

*     0+    0                         1396.1063     1505.0817             7.81%
      0     0     1504.2453     5     1396.1063     1504.2453       61    7.75%
      0     0     1495.7996     4     1396.1063 UserPurge2: 1       67    7.14%
      0     0     1479.8354     4     1396.1063 UserPurge2: 1       72    6.00%
      0     0     1470.9452     5     1396.1063 UserPurge2: 1       80    5.36%
      0     0     1462.3527     5     1396.1063 UserPurge2: 1       89    4.75%
      0     0     1459.1783     6     1396.1063 UserPurge2: 1       94    4.52%
      0     2     1459.1783     6     1396.1063     1459.0024       94    4.51%
Elapsed time = 10.65 sec. (13.05 ticks, tree = 0.01 MB, solutions = 1)
      2     2     1403.8966    13     1396.1063     1403.8961     2205    0.56%
      3     3     1401.6755    10     1396.1063     1403.8961     3400    0.56%
      4     4     1401.5369     8     1396.1063     1403.8961     3693    0.56%
      5     5     1400.4115    13     1396.1063     1403.8961     4205    0.56%
*     9     5      integral     0     1397.5519     1403.8961     4288    0.45%
*    12     4      integral     0     1398.5625     1401.6754     4437    0.22%
     16     2     1399.8388    11     1398.5625     1399.8388     5060    0.09%
     17     3     1399.1127    11     1398.5625     1399.8388     5794    0.09%
     19     1        cutoff           1398.5625     1399.8388     6248    0.09%

User cuts applied:  1490

Root node processing (before b&c):
  Real time             =   10.65 sec. (14.63 ticks)
Sequential b&c:
  Real time             =  305.48 sec. (3244.64 ticks)
                          ------------
Total (root+branch&cut) =  316.13 sec. (3259.27 ticks)
@Parameters: 
is_S_cut                                true
is_add_all_yinF                         true
is_start_value                          true
is_usercut                              true
is_visualization                        false
uc_only_rootnode                        false

data                                    Qi
fn                                      data/Qi/instance_1000_500.csv
mode                                    NewSubmodular
solver                                  cplex

p                                       2
r                                       10

EPS                                     1.0e-06
EPS_vio                                 1.0e-04
beta                                    0.10
gap                                     0.00
nodelimit                               Inf
timelimit                               7200.00


@PrintInfos
ItCnt: 6265
Current gap: 0.00 %
Termination Status: OPTIMAL
Primal Status: FEASIBLE_POINT
Solve Time: 316.13 sec
Objective Value: 1398.562484
Number of Nodes:     21

CutInfo: [phase] num / time (sec) 
ZLP             [phase1]     0 / 0.00 [rLC]     0 / 0.00 [rUC]     0 / 0.00 [sLC]     0 / 0.00 [sUC]     0 / 0.00 
OldSubmodular   [phase1]     0 / 0.00 [rLC]     0 / 0.00 [rUC]     0 / 0.00 [sLC]     0 / 0.00 [sUC]     0 / 0.00 
NewSubmodular   [phase1]     0 / 0.00 [rLC]    14 / 7.38 [rUC]    15 / 1.25 [sLC]     1 / 6.12 [sUC]  1482 / 296.71 
PMP             [phase1]     0 / 0.00 [rLC]     3 / 5.08 [rUC]     0 / 0.00 [sLC]     3 / 6.02 [sUC]    22 / 59.04 
Separation Round: [phase1] 0  [rLC] 14  [rUC] 10  [sLC] 3  [sUC] 469
Root Best Bound 1403.896062
Root Best Integer: 1396.106273
Best Bound: 1398.562484
Best Integer: 1398.562484

